dates = {'2022-01-23','2022-01-24','2022-01-25','2022-01-26','2022-01-27','2022-01-28','2022-01-29','2022-01-30','2022-01-31','2022-02-01'};

daysOfWeek = [Sunday,Monday,Tuesday,Wednesday,Thursday,Friday,Saturday,Sunday,Monday,Tuesday];

% For this week, how many people will be here.
numPeople = [162,162,167,164,167,164,164,164,158,160];

% Physical workers need 50 to 100 % more nutrients per day.
numPhysicalWorkers = [56.5,56.5,57.5,57.5,57.5,57.5,57.5,57.5,57.5,54.0];

% Males need +25% more nutrients per day.
numMen = [136,136,140,140,140,140,137,137,137,132];

% Num people who do not eat categories. contains = {none, meat, milk, gluten, egg, nut, seed, sugars}
numRefusals = [| 0,3,2,0,0,5,0,0 | 0,3,2,0,0,5,0,0 | 0,5,0,8,2,1,0,0 | 0,7,12,0,0,0,0,5 | 0,3,11,0,0,0,5,0 | 0,0,0,6,12,11,5,6 | 0,0,0,6,12,11,5,6 | 0,0,0,6,12,11,5,6 | 0,10,0,0,4,0,2,0 | 0,8,0,0,0,0,0,0 |];

